% File represents an instance of a Composite Structure problem to be solved by a CP framework
% Created on 2025-03-26 10:41:21.098
T = 58;
n = 16;
m = 24;
edges = [(2, 1),
(5, 6),
(9, 10),
(14, 13),
(2, 3),
(7, 6),
(11, 10),
(15, 14),
(4, 3),
(7, 8),
(11, 12),
(15, 16),
(5, 1),
(5, 9),
(9, 13),
(2, 6),
(6, 10),
(14, 10),
(7, 3),
(7, 11),
(15, 11),
(4, 8),
(8, 12),
(16, 12)];
counts = [|12, 22, 12, 8,
|12, 24, 12, 8,
|12, 22, 12, 8,
|12, 22, 12, 10,
|12, 26, 12, 8,
|12, 24, 12, 6,
|12, 26, 12, 8,
|12, 22, 12, 8,
|12, 22, 12, 6,
|12, 20, 12, 6,
|12, 24, 12, 8,
|12, 22, 12, 6,
|10, 20, 10, 6,
|12, 22, 12, 6,
|12, 24, 12, 10,
|12, 22, 12, 10|];
